
Gurobi 11.0.3 (linux64) logging started Thu Nov 21 14:18:05 2024

Set parameter LogFile to value "/home/yihong/Coding/OR_SUC/SUC_results_bigM100000_thread4/case24_ieee_rts_theta0.1_epsilon0.05_gurobi_seed200000_num_gen100_N_WDR100_load_scaling_factor1_exact_T20quadra_cost.txt"
Set parameter TimeLimit to value 3600
Gurobi Optimizer version 11.0.3 build v11.0.3rc0 (linux64 - "Ubuntu 20.04.6 LTS")

CPU model: AMD EPYC 7532 32-Core Processor, instruction set [SSE2|AVX|AVX2]
Thread count: 64 physical cores, 128 logical processors, using up to 4 threads

Optimize a model with 47983 rows, 25001 columns and 1104482 nonzeros
Model fingerprint: 0x9e932024
Model has 2000 quadratic constraints
Variable types: 22901 continuous, 2100 integer (2100 binary)
Coefficient statistics:
  Matrix range     [1e-04, 1e+05]
  QMatrix range    [2e-03, 8e-03]
  QLMatrix range   [6e-01, 6e+01]
  Objective range  [1e+00, 1e+00]
  Bounds range     [1e+00, 1e+00]
  RHS range        [1e+00, 1e+05]
Presolve removed 39171 rows and 10591 columns
Presolve time: 0.34s
Presolved: 8812 rows, 14410 columns, 49963 nonzeros
Presolved model has 2000 quadratic constraint(s)
Variable types: 12319 continuous, 2091 integer (2091 binary)

Root relaxation: objective 2.483163e+04, 6691 iterations, 0.17 seconds (0.25 work units)

    Nodes    |    Current Node    |     Objective Bounds      |     Work
 Expl Unexpl |  Obj  Depth IntInf | Incumbent    BestBd   Gap | It/Node Time

     0     0 24831.6314    0   12          - 24831.6314      -     -    0s
     0     0 290002.087    0  594          - 290002.087      -     -    1s
     0     0 528821.603    0  535          - 528821.603      -     -    1s
     0     0 529192.698    0  422          - 529192.698      -     -    1s
     0     0 530005.316    0  323          - 530005.316      -     -    1s
     0     0 530086.106    0  318          - 530086.106      -     -    1s
     0     0 530323.412    0  319          - 530323.412      -     -    1s
     0     0 530416.101    0  319          - 530416.101      -     -    1s
     0     2 530416.101    0  319          - 530416.101      -     -    2s
H  373   260                    531596.31254 531105.941  0.09%  27.9    3s
*  373   260             125    531596.31254 531105.941  0.09%  27.9    3s

Cutting planes:
  Gomory: 7
  Implied bound: 345
  MIR: 127
  Flow cover: 119
  RLT: 1

Explored 422 nodes (30792 simplex iterations) in 4.09 seconds (5.45 work units)
Thread count was 4 (of 128 available processors)

Solution count 2: 531596 531596 

Optimal solution found (tolerance 1.00e-03)
Warning: max constraint violation (6.7949e-07) exceeds tolerance
Best objective 5.315963125368e+05, best bound 5.311059409979e+05, gap 0.0922%
